39 1000
7 199
8 163
7 182
8 156
5 110
3 199
2 199
10 170
9 146
5 113
8 159
9 110
5 187
9 117
2 104
3 187
11 195
2 156
11 170
9 150
11 195
3 163
9 146
7 159
7 156
2 192
6 156
6 192
8 110
4 110
3 161
6 150
5 161
7 182
8 20
11 117
10 199
2 113
10 104
